
Gurobi 10.0.3 (win64) logging started Sun Dec 17 23:08:40 2023

Set parameter LogFile to value "./resultados/log.log"
Set parameter TimeLimit to value 600
Gurobi Optimizer version 10.0.3 build v10.0.3rc0 (win64)

CPU model: AMD Ryzen 5 5600 6-Core Processor, instruction set [SSE2|AVX|AVX2]
Thread count: 6 physical cores, 12 logical processors, using up to 12 threads

Academic license 2433534 - for non-commercial use only - registered to gm___@gmail.com
Optimize a model with 25583 rows, 25000 columns and 2112916 nonzeros
Model fingerprint: 0x6f4f85a5
Variable types: 0 continuous, 25000 integer (25000 binary)
Coefficient statistics:
  Matrix range     [1e+00, 8e+01]
  Objective range  [5e-01, 5e+00]
  Bounds range     [1e+00, 1e+00]
  RHS range        [1e+00, 1e+00]
Found heuristic solution: objective 68527.000000
Presolve removed 25499 rows and 12499 columns
Presolve time: 0.82s
Presolved: 84 rows, 12501 columns, 7838 nonzeros
Variable types: 0 continuous, 12501 integer (12500 binary)
Root relaxation presolved: 91 rows, 12501 columns, 8490 nonzeros


Root relaxation: objective 6.300000e+01, 87 iterations, 0.01 seconds (0.00 work units)

    Nodes    |    Current Node    |     Objective Bounds      |     Work
 Expl Unexpl |  Obj  Depth IntInf | Incumbent    BestBd   Gap | It/Node Time

     0     0   63.00000    0    - 68527.0000   63.00000   100%     -    2s
     0     0   65.00000    0   22 68527.0000   65.00000   100%     -    2s
H    0     0                    20576.000000   65.00000   100%     -    2s
     0     0   86.00000    0    - 20576.0000   86.00000   100%     -    3s
H    0     0                     460.0000000   86.00000  81.3%     -    3s
     0     0   86.00000    0    6  460.00000   86.00000  81.3%     -    3s
     0     0   86.00000    0    6  460.00000   86.00000  81.3%     -    6s
     0     0   86.00000    0    6  460.00000   86.00000  81.3%     -   10s
     0     0   86.00000    0    5  460.00000   86.00000  81.3%     -   11s
H    0     0                     436.0000000   86.00000  80.3%     -   12s
     0     0   86.00000    0    5  436.00000   86.00000  80.3%     -   15s
H    0     2                     399.0000000   86.00000  78.4%     -   19s
     0     2   86.00000    0   18  399.00000   86.00000  78.4%     -   19s
H    1     4                     358.0000000   86.00000  76.0%  93.0   20s
H    3     8                     354.0000000   86.00000  75.7%   126   22s
H    4     8                     352.0000000   86.00000  75.6%   114   24s
H    7    14                     350.0000000   86.00000  75.4%  79.9   27s
H    8    14                     345.0000000   86.00000  75.1%  74.8   28s
H   13    20                     335.0000000   86.00000  74.3%  66.9   34s
    19    26   86.00000    4   49  335.00000   86.00000  74.3%  83.5   42s
H   25    44                     333.0000000   86.00000  74.2%  97.4   50s
H   28    44                     319.0000000   86.00000  73.0%  91.9   54s
    31    44   86.00000    6   62  319.00000   86.00000  73.0%  87.8   59s
H   32    44                     315.0000000   86.00000  72.7%  85.1   60s
    37    44   86.00000    4   68  315.00000   86.00000  72.7%  80.1   67s
    43   124   86.00000    4   66  315.00000   86.00000  72.7%  75.5   75s
    48   124   86.00000    9   58  315.00000   86.00000  72.7%  70.2   81s
    62   124   86.00000   14   13  315.00000   86.00000  72.7%  76.3   97s
    67   124   86.00000   14   32  315.00000   86.00000  72.7%  71.6  103s
    97   124   86.00000   20   31  315.00000   86.00000  72.7%  67.0  139s
   123   252   86.00000   10   25  315.00000   86.00000  72.7%  72.0  172s
   127   252   86.00000   13   30  315.00000   86.00000  72.7%  70.2  177s
   131   252   86.00000   15   32  315.00000   86.00000  72.7%  68.3  182s
   135   252   86.00000   17   28  315.00000   86.00000  72.7%  66.5  187s
   139   252   86.00000   20   16  315.00000   86.00000  72.7%  66.2  192s
   143   252   86.00000   22   30  315.00000   86.00000  72.7%  65.0  196s
   147   252   86.00000   24   32  315.00000   86.00000  72.7%  63.5  201s
   223   252   87.00000   43   17  315.00000   86.00000  72.7%  57.8  299s
   225   252   87.16667   45   18  315.00000   86.00000  72.7%  57.3  301s
   229   252   87.16667   49   22  315.00000   86.00000  72.7%  56.4  306s
   233   252   87.50000   53   18  315.00000   86.00000  72.7%  55.5  312s
   251   435   86.00000   23   61  315.00000   86.00000  72.7%  55.5  340s
   254   435   86.01786   25   63  315.00000   86.00000  72.7%  55.1  345s
   257   435   86.01786   25   66  315.00000   86.00000  72.7%  54.6  350s
   260   435   86.01786   26   63  315.00000   86.00000  72.7%  54.1  355s
   263   435   86.01786   26   64  315.00000   86.00000  72.7%  53.6  360s
   266   435   86.10119   27   61  315.00000   86.00000  72.7%  53.2  365s
   269   435   86.06786   27   70  315.00000   86.00000  72.7%  52.8  370s
   272   435   86.14286   27   58  315.00000   86.00000  72.7%  52.3  375s
   276   435   86.06786   28   66  315.00000   86.00000  72.7%  51.8  381s
   279   435   86.19286   30   67  315.00000   86.00000  72.7%  51.3  386s
   281   435   86.19286   31   67  315.00000   86.00000  72.7%  51.0  390s
   285   435   86.25714   31   58  315.00000   86.00000  72.7%  50.4  396s
   288   435   86.19286   34   67  315.00000   86.00000  72.7%  49.9  401s
   291   435   86.31786   36   66  315.00000   86.00000  72.7%  49.4  406s
   293   435   86.31786   34   64  315.00000   86.00000  72.7%  49.1  410s
   296   435   86.31786   38   65  315.00000   86.00000  72.7%  48.7  415s
   299   435   86.32976   40   66  315.00000   86.00000  72.7%  48.3  420s

Cutting planes:
  User: 1
  Flow cover: 3
  Lazy constraints: 6535

Explored 434 nodes (20690 simplex iterations) in 602.82 seconds (8.11 work units)
Thread count was 12 (of 12 available processors)

Solution count 10: 315 319 333 ... 399

Time limit reached
Best objective 3.150000000000e+02, best bound 8.600000000000e+01, gap 72.6984%

User-callback calls 2139, time in user-callback 588.23 sec
